VER
4

OBJSENSE
MIN

VAR
17 1
F 17

CON
52 3
HVECQRE 33
HVECPSD 16
L= 3

OBJACOORD
1
0 1.0

ACOORD
53
0 0 1.0
1 1 1.0
2 2 1.0
3 3 1.0
4 4 1.0
5 5 1.0
6 6 1.0
7 7 1.0
8 8 1.0
9 9 1.0
10 10 1.0
11 11 1.0
12 12 1.0
13 13 1.0
14 14 1.0
15 15 1.0
16 16 1.0
17 1 1.0
18 2 1.0
19 3 1.0
20 4 1.0
25 9 1.0
30 14 1.0
31 15 1.0
32 16 1.0
33 1 1.0
34 2 1.0
35 3 1.0
36 4 1.0
37 5 1.0
38 6 1.0
39 7 1.0
40 8 1.0
41 9 1.0
42 10 1.0
43 11 1.0
44 12 1.0
45 13 1.0
46 14 1.0
47 15 1.0
48 16 1.0
49 1 1.0
49 16 1.0
50 1 0.4999999999999998
50 4 0.4999999999999998
50 7 0.7071067811865472
50 9 0.4999999999999998
50 10 0.7071067811865472
50 16 0.4999999999999998
51 1 1.0
51 4 1.0
51 9 1.0
51 16 1.0

BCOORD
3
49 0.975
50 0.975
51 1.0
